7160.0
12, 18, 37, 86, 102, 116, 121, 159, 192, 196, 211, 236, 245, 249, 269, 294, 347, 382, 397, 426, 446, 463, 473, 484, 493, 523, 539, 568, 573, 599, 603, 607, 643, 657, 664, 703, 708, 732, 737, 750, 753, 770, 775, 807, 827, 830, 845, 876, 879, 882, 945, 984